NAME : morphed20-2-8
COMMENT : Generated using the function morphInstances from the R-package netgen (Bossek,2015) - Number of clusters: 2 Alpha: 0.5
TYPE : TSP
DIMENSION : 20
EDGE_WEIGHT_TYPE : EUC_2D
NODE_COORD_SECTION
1 43.8490521099 12.1291062108
2 27.4209138375 24.4297118024
3 75.5925296576 61.6634116798
4 53.2641341584 10.8818540942
5 41.4933516912 63.7664880305
6 74.3694067768 86.8606873595
7 29.4074611964 6.8990441988
8 83.9916399309 66.3077474617
9 73.0810345732 51.9530271334
10 65.2181998248 73.6452288009
11 42.7044549826 16.6540235485
12 16.2602580637 34.9035900954
13 53.364730486 82.6211794243
14 49.542495581 12.1460262087
15 17.5076156219 23.8181119405
16 69.1458068767 18.1600780875
17 33.2277164127 78.1911983384
18 42.4243070651 82.5155849005
19 29.9057845915 27.8165122533
20 59.6207384034 68.4660386327
EOF
